10
10
24275
0
0
59 58 58 56 64 56 60 60 57 58
1
0
50 51 50 48 49 49 52 50 49 49
2
0
40 39 40 37 40 40 37 40 38 40
3
0
41 39 41 42 38 40 37 38 40 38
4
0
37 36 37 36 35 34 34 32 33 34
5
0
51 49 52 46 49 50 52 49 50 52
6
0
57 58 58 60 61 57 57 58 61 60
7
0
56 61 59 56 61 61 56 59 60 61
8
0
42 39 43 38 41 39 36 39 40 39
9
0
45 44 49 45 44 45 46 48 46 46
